
******************************************************************************
This program contains Ipopt, a library for large-scale nonlinear optimization.
 Ipopt is released as open source code under the Eclipse Public License (EPL).
         For more information visit http://projects.coin-or.org/Ipopt
******************************************************************************

This is Ipopt version 3.12.13, running with linear solver ma57.

Starting derivative checker for first derivatives.

* jac_g [  696,    1] =  9.2326581568354577e-02 v  ~  9.2069890600399162e-02  [ 2.567e-04]
* jac_g [  697,    1] =  9.2438764535023282e-02 v  ~  9.2181449584671782e-02  [ 2.573e-04]
* jac_g [  698,    1] =  9.2513553179469091e-02 v  ~  9.2255821648734582e-02  [ 2.577e-04]
* jac_g [  699,    1] =  9.2550947501692002e-02 v  ~  9.2293007680765982e-02  [ 2.579e-04]
* jac_g [  796,    1] =  1.6482680978196954e-02 v  ~  1.6328897012307664e-02  [ 1.538e-04]
* jac_g [  797,    1] =  1.6500682510060722e-02 v  ~  1.6346524578381150e-02  [ 1.542e-04]
* jac_g [  798,    1] =  1.6512680799335801e-02 v  ~  1.6358273402516943e-02  [ 1.544e-04]
* jac_g [  799,    1] =  1.6518679124383116e-02 v  ~  1.6364146815384117e-02  [ 1.545e-04]
* jac_g [  896,    1] =  3.0167698458661622e-02 v  ~  2.9923229893924486e-02  [ 2.445e-04]
* jac_g [  897,    1] =  3.0205957527679898e-02 v  ~  2.9960894432079499e-02  [ 2.451e-04]
* jac_g [  898,    1] =  3.0231465735638320e-02 v  ~  2.9986006122584286e-02  [ 2.455e-04]
* jac_g [  899,    1] =  3.0244220488201398e-02 v  ~  2.9998562300903586e-02  [ 2.457e-04]
* jac_g [  996,    1] =  9.2326581568354577e-02 v  ~  9.2069890600399162e-02  [ 2.567e-04]
* jac_g [  997,    1] =  9.2438764535023282e-02 v  ~  9.2181449584671782e-02  [ 2.573e-04]
* jac_g [  998,    1] =  9.2513553179469091e-02 v  ~  9.2255821648734582e-02  [ 2.577e-04]
* jac_g [  999,    1] =  9.2550947501692002e-02 v  ~  9.2293007680765982e-02  [ 2.579e-04]

Derivative checker detected 16 error(s).

Number of nonzeros in equality constraint Jacobian...:        0
Number of nonzeros in inequality constraint Jacobian.:     9144
Number of nonzeros in Lagrangian Hessian.............:       21

Total number of variables............................:        6
                     variables with only lower bounds:        0
                variables with lower and upper bounds:        6
                     variables with only upper bounds:        0
Total number of equality constraints.................:        0
Total number of inequality constraints...............:     1524
        inequality constraints with only lower bounds:        0
   inequality constraints with lower and upper bounds:        0
        inequality constraints with only upper bounds:     1524

iter    objective    inf_pr   inf_du lg(mu)  ||d||  lg(rg) alpha_du alpha_pr  ls
   0  9.0015470e-02 0.00e+00 9.71e+00   0.0 0.00e+00    -  0.00e+00 0.00e+00   0
   1  8.9678261e-02 0.00e+00 3.00e-02  -5.1 2.70e-03    -  9.70e-01 1.00e+00f  1
   2  8.2950339e-02 0.00e+00 1.12e-02  -2.7 1.77e-01    -  6.27e-01 7.21e-01h  1
   3  7.8923341e-02 0.00e+00 3.78e-04  -3.0 3.74e-02    -  9.90e-01 1.00e+00h  1
   4  7.1456511e-02 0.00e+00 1.97e-04  -3.3 9.84e-02    -  9.98e-01 1.00e+00h  1
   5  6.9998544e-02 0.00e+00 2.78e-03  -4.2 3.42e-02    -  9.95e-01 8.66e-01h  1
   6  6.9337755e-02 0.00e+00 2.56e-06  -5.6 2.57e-02    -  1.00e+00 1.00e+00h  1
   7  6.9269080e-02 0.00e+00 2.27e-09  -7.7 6.36e-03    -  1.00e+00 1.00e+00h  1
   8  6.9267457e-02 0.00e+00 3.59e-09 -11.0 2.63e-04    -  1.00e+00 1.00e+00h  1

Number of Iterations....: 8

                                   (scaled)                 (unscaled)
Objective...............:   6.9267456516897016e-02    6.9267456516897016e-02
Dual infeasibility......:   3.5915967459992281e-09    3.5915967459992281e-09
Constraint violation....:   0.0000000000000000e+00    0.0000000000000000e+00
Complementarity.........:   2.2220242775051900e-09    2.2220242775051900e-09
Overall NLP error.......:   3.5915967459992281e-09    3.5915967459992281e-09


Number of objective function evaluations             = 9
Number of objective gradient evaluations             = 9
Number of equality constraint evaluations            = 0
Number of inequality constraint evaluations          = 9
Number of equality constraint Jacobian evaluations   = 0
Number of inequality constraint Jacobian evaluations = 9
Number of Lagrangian Hessian evaluations             = 8
Total CPU secs in IPOPT (w/o function evaluations)   =      0.050
Total CPU secs in NLP function evaluations           =      0.028

EXIT: Optimal Solution Found.
